============================[ Problem Statistics ]=============================|                                                                             ||  Number of variables:          4242                                         ||  Number of clauses:           10499                                         ||  Parse time:                   0.89 s                                       ||                                                                             |============================[ Search Statistics ]==============================| Conflicts |          ORIGINAL         |          LEARNT          | Progress ||           |    Vars  Clauses Literals |    Limit  Clauses Lit/Cl |          |===============================================================================|       100 |    1591     6704  1413465 |     2458      100     53 | 62.501 % ||       250 |    1591     6704  1413465 |     2703      250     75 | 62.495 % ||       475 |    1591     6704  1413465 |     2974      475     85 | 62.495 % |===============================================================================restarts              : 4conflicts             : 475            (353 /sec)decisions             : 833            (0.00 % random) (618 /sec)propagations          : 13795          (10241 /sec)conflict literals     : 40561          (94.43 % deleted)CPU time              : 1.347 sSATISFIABLE